36 30
24 759
2 976
11 301
24 123
6 767
9 247
8 651
28 349
24 779
20 316
5 309
20 683
10 931
22 734
13 366
25 496
23 684
9 578
22 733
24 701
11 292
25 796
21 524
9 948
24 941
29 46
29 952
22 7
15 357
7 241
5 517
3 624
7 467
17 255
16 82
18 44
